(set-logic HORN)
(declare-fun state (Int (Array Int Int) (Array Int Int) (Array Int Int) (Array Int Int) Int Int (Array Int Int) (Array Int Int) Int Int Int Int Int Int Int Int Int Int Int Int Int Int Int Int Int Int Int Int Int Int Int Int Int Int Int Int Int Int Int Int Int Bool Bool Bool Bool Bool Bool (Array Int Int)) Bool)
(assert (forall ((|hhv_ULTIMATE.start_ULTIMATE.startEXIT_0_Int| Int) (|hhv_ULTIMATE.start_ULTIMATE.startEXIT_1_Array_Int_Int| (Array Int Int)) (|hhv_ULTIMATE.start_ULTIMATE.startEXIT_2_Array_Int_Int| (Array Int Int)) (|hhv_ULTIMATE.start_ULTIMATE.startEXIT_3_Array_Int_Array_Int_Int| (Array Int Int)) (|hhv_ULTIMATE.start_ULTIMATE.startEXIT_4_Array_Int_Array_Int_Int| (Array Int Int)) (|hhv_ULTIMATE.start_ULTIMATE.startEXIT_5_Int| Int) (|hhv_ULTIMATE.start_ULTIMATE.startEXIT_6_Int| Int) (|hhv_ULTIMATE.start_ULTIMATE.startEXIT_7_Array_Int_Int| (Array Int Int)) (|hhv_ULTIMATE.start_ULTIMATE.startEXIT_8_Array_Int_Int| (Array Int Int)) (|hhv_ULTIMATE.start_ULTIMATE.startEXIT_9_Int| Int) (|hhv_ULTIMATE.start_ULTIMATE.startEXIT_10_Int| Int) (|hhv_ULTIMATE.start_ULTIMATE.startEXIT_11_Int| Int) (|hhv_ULTIMATE.start_ULTIMATE.startEXIT_12_Int| Int) (|hhv_ULTIMATE.start_ULTIMATE.startEXIT_13_Int| Int) (|hhv_ULTIMATE.start_ULTIMATE.startEXIT_14_Int| Int) (|hhv_ULTIMATE.start_ULTIMATE.startEXIT_15_Int| Int) (|hhv_ULTIMATE.start_ULTIMATE.startEXIT_16_Int| Int) (|hhv_ULTIMATE.start_ULTIMATE.startEXIT_17_Int| Int) (|hhv_ULTIMATE.start_ULTIMATE.startEXIT_18_Int| Int) (|hhv_ULTIMATE.start_ULTIMATE.startEXIT_19_Int| Int) (|hhv_ULTIMATE.start_ULTIMATE.startEXIT_20_Int| Int) (|hhv_ULTIMATE.start_ULTIMATE.startEXIT_21_Int| Int) (|hhv_ULTIMATE.start_ULTIMATE.startEXIT_22_Int| Int) (|hhv_ULTIMATE.start_ULTIMATE.startEXIT_23_Int| Int) (|hhv_ULTIMATE.start_ULTIMATE.startEXIT_24_Int| Int) (|hhv_ULTIMATE.start_ULTIMATE.startEXIT_25_Int| Int) (|hhv_ULTIMATE.start_ULTIMATE.startEXIT_26_Int| Int) (|hhv_ULTIMATE.start_ULTIMATE.startEXIT_27_Int| Int) (|hhv_ULTIMATE.start_ULTIMATE.startEXIT_28_Int| Int) (|hhv_ULTIMATE.start_ULTIMATE.startEXIT_29_Int| Int) (|hhv_ULTIMATE.start_ULTIMATE.startEXIT_30_Int| Int) (|hhv_ULTIMATE.start_ULTIMATE.startEXIT_31_Int| Int) (|hhv_ULTIMATE.start_ULTIMATE.startEXIT_32_Int| Int) (|hhv_ULTIMATE.start_ULTIMATE.startEXIT_33_Int| Int) (|hhv_ULTIMATE.start_ULTIMATE.startEXIT_34_Int| Int) (|hhv_ULTIMATE.start_ULTIMATE.startEXIT_35_Int| Int) (|hhv_ULTIMATE.start_ULTIMATE.startEXIT_36_Int| Int) (|hhv_ULTIMATE.start_ULTIMATE.startEXIT_37_Int| Int) (|hhv_ULTIMATE.start_ULTIMATE.startEXIT_38_Int| Int) (|hhv_ULTIMATE.start_ULTIMATE.startEXIT_39_Int| Int) (|hhv_ULTIMATE.start_ULTIMATE.startEXIT_40_Int| Int) (|hhv_ULTIMATE.start_ULTIMATE.startEXIT_41_Int| Int) (|hbv_ULTIMATE.start_L2-1_42_Bool| Bool) (|.loc.6| Bool) (|.loc.7| Bool) (|.loc.8| Bool) (|.loc.9| Bool) (|.loc.10| Bool) (|hbv_ULTIMATE.start_L-1_1_Array_Int_Int| (Array Int Int)) (|.x.1397| Int) (|.x.1395| (Array Int Int)) (|.x.1393| Int) (|.x.1391| (Array Int Int)) (|.x.1387| Int) (|.x.1389| (Array Int Int)) (|.x.1388| (Array Int Int)) (|hhv_ULTIMATE.start_ULTIMATE.startEXIT_42_Bool| Bool) (|.x.1399| Int) (|.x.1400| Int) (|.x.1404| Int) (|.x.1409| Int) (|.x.1410| Int) (|.x.1411| Int) (|.x.1412| Int) (|.x.1417| Int) (|.x.1419| Int) (|.x.1420| Int) (|.x.1422| Int) (|.x.1425| Int) (|.loc.15| Bool) (|.loc.12| Bool) (|.loc.13| Bool) (|.loc.14| Bool) (|.x.1414| Int) (|.x.1402| Int) (|.x.1415| Int) (|.x.1426| Int) (|.loc.11| Bool) (|.x.1421| Int) (|.x.1416| Int) (|.x.1413| Int) (|.x.1390| (Array Int Int)) (|.x.1418| Int) (|.x.1424| Int) (|.x.1423| Int) (|.x.1407| Int) (|.x.1427| Int) (|.x.1408| Int) (|.x.1428| Int) (|.x.1405| Int) (|.x.1406| Int) (|.x.1403| Int) (|.x.1398| Int) (|.x.1401| Int) (|.x.1396| Int) (|.x.1392| Int) (|.x.1394| (Array Int Int)) (|.xtv.1| (Array Int Int))) (=> (and (and (and (and (and .loc.6 (not .loc.7)) (not .loc.8)) (not .loc.9)) (not .loc.10)) (and (and (and (and (and (= hhv_ULTIMATE.start_ULTIMATE.startEXIT_1_Array_Int_Int hhv_ULTIMATE.start_ULTIMATE.startEXIT_2_Array_Int_Int) (= hhv_ULTIMATE.start_ULTIMATE.startEXIT_7_Array_Int_Int hhv_ULTIMATE.start_ULTIMATE.startEXIT_8_Array_Int_Int)) (= hhv_ULTIMATE.start_ULTIMATE.startEXIT_5_Int hhv_ULTIMATE.start_ULTIMATE.startEXIT_6_Int)) (= hhv_ULTIMATE.start_ULTIMATE.startEXIT_9_Int hhv_ULTIMATE.start_ULTIMATE.startEXIT_10_Int)) (= hhv_ULTIMATE.start_ULTIMATE.startEXIT_3_Array_Int_Array_Int_Int hhv_ULTIMATE.start_ULTIMATE.startEXIT_4_Array_Int_Array_Int_Int)) (not hbv_ULTIMATE.start_L2-1_42_Bool))) (state |hhv_ULTIMATE.start_ULTIMATE.startEXIT_0_Int| |hhv_ULTIMATE.start_ULTIMATE.startEXIT_1_Array_Int_Int| |hhv_ULTIMATE.start_ULTIMATE.startEXIT_2_Array_Int_Int| |hhv_ULTIMATE.start_ULTIMATE.startEXIT_3_Array_Int_Array_Int_Int| |hhv_ULTIMATE.start_ULTIMATE.startEXIT_4_Array_Int_Array_Int_Int| |hhv_ULTIMATE.start_ULTIMATE.startEXIT_5_Int| |hhv_ULTIMATE.start_ULTIMATE.startEXIT_6_Int| |hhv_ULTIMATE.start_ULTIMATE.startEXIT_7_Array_Int_Int| |hhv_ULTIMATE.start_ULTIMATE.startEXIT_8_Array_Int_Int| |hhv_ULTIMATE.start_ULTIMATE.startEXIT_9_Int| |hhv_ULTIMATE.start_ULTIMATE.startEXIT_10_Int| |hhv_ULTIMATE.start_ULTIMATE.startEXIT_11_Int| |hhv_ULTIMATE.start_ULTIMATE.startEXIT_12_Int| |hhv_ULTIMATE.start_ULTIMATE.startEXIT_13_Int| |hhv_ULTIMATE.start_ULTIMATE.startEXIT_14_Int| |hhv_ULTIMATE.start_ULTIMATE.startEXIT_15_Int| |hhv_ULTIMATE.start_ULTIMATE.startEXIT_16_Int| |hhv_ULTIMATE.start_ULTIMATE.startEXIT_17_Int| |hhv_ULTIMATE.start_ULTIMATE.startEXIT_18_Int| |hhv_ULTIMATE.start_ULTIMATE.startEXIT_19_Int| |hhv_ULTIMATE.start_ULTIMATE.startEXIT_20_Int| |hhv_ULTIMATE.start_ULTIMATE.startEXIT_21_Int| |hhv_ULTIMATE.start_ULTIMATE.startEXIT_22_Int| |hhv_ULTIMATE.start_ULTIMATE.startEXIT_23_Int| |hhv_ULTIMATE.start_ULTIMATE.startEXIT_24_Int| |hhv_ULTIMATE.start_ULTIMATE.startEXIT_25_Int| |hhv_ULTIMATE.start_ULTIMATE.startEXIT_26_Int| |hhv_ULTIMATE.start_ULTIMATE.startEXIT_27_Int| |hhv_ULTIMATE.start_ULTIMATE.startEXIT_28_Int| |hhv_ULTIMATE.start_ULTIMATE.startEXIT_29_Int| |hhv_ULTIMATE.start_ULTIMATE.startEXIT_30_Int| |hhv_ULTIMATE.start_ULTIMATE.startEXIT_31_Int| |hhv_ULTIMATE.start_ULTIMATE.startEXIT_32_Int| |hhv_ULTIMATE.start_ULTIMATE.startEXIT_33_Int| |hhv_ULTIMATE.start_ULTIMATE.startEXIT_34_Int| |hhv_ULTIMATE.start_ULTIMATE.startEXIT_35_Int| |hhv_ULTIMATE.start_ULTIMATE.startEXIT_36_Int| |hhv_ULTIMATE.start_ULTIMATE.startEXIT_37_Int| |hhv_ULTIMATE.start_ULTIMATE.startEXIT_38_Int| |hhv_ULTIMATE.start_ULTIMATE.startEXIT_39_Int| |hhv_ULTIMATE.start_ULTIMATE.startEXIT_40_Int| |hhv_ULTIMATE.start_ULTIMATE.startEXIT_41_Int| |hbv_ULTIMATE.start_L2-1_42_Bool| |.loc.6| |.loc.7| |.loc.8| |.loc.9| |.loc.10| |hbv_ULTIMATE.start_L-1_1_Array_Int_Int|))))
(assert (forall ((|hhv_ULTIMATE.start_ULTIMATE.startEXIT_0_Int| Int) (|hhv_ULTIMATE.start_ULTIMATE.startEXIT_1_Array_Int_Int| (Array Int Int)) (|hhv_ULTIMATE.start_ULTIMATE.startEXIT_2_Array_Int_Int| (Array Int Int)) (|hhv_ULTIMATE.start_ULTIMATE.startEXIT_3_Array_Int_Array_Int_Int| (Array Int Int)) (|hhv_ULTIMATE.start_ULTIMATE.startEXIT_4_Array_Int_Array_Int_Int| (Array Int Int)) (|hhv_ULTIMATE.start_ULTIMATE.startEXIT_5_Int| Int) (|hhv_ULTIMATE.start_ULTIMATE.startEXIT_6_Int| Int) (|hhv_ULTIMATE.start_ULTIMATE.startEXIT_7_Array_Int_Int| (Array Int Int)) (|hhv_ULTIMATE.start_ULTIMATE.startEXIT_8_Array_Int_Int| (Array Int Int)) (|hhv_ULTIMATE.start_ULTIMATE.startEXIT_9_Int| Int) (|hhv_ULTIMATE.start_ULTIMATE.startEXIT_10_Int| Int) (|hhv_ULTIMATE.start_ULTIMATE.startEXIT_11_Int| Int) (|hhv_ULTIMATE.start_ULTIMATE.startEXIT_12_Int| Int) (|hhv_ULTIMATE.start_ULTIMATE.startEXIT_13_Int| Int) (|hhv_ULTIMATE.start_ULTIMATE.startEXIT_14_Int| Int) (|hhv_ULTIMATE.start_ULTIMATE.startEXIT_15_Int| Int) (|hhv_ULTIMATE.start_ULTIMATE.startEXIT_16_Int| Int) (|hhv_ULTIMATE.start_ULTIMATE.startEXIT_17_Int| Int) (|hhv_ULTIMATE.start_ULTIMATE.startEXIT_18_Int| Int) (|hhv_ULTIMATE.start_ULTIMATE.startEXIT_19_Int| Int) (|hhv_ULTIMATE.start_ULTIMATE.startEXIT_20_Int| Int) (|hhv_ULTIMATE.start_ULTIMATE.startEXIT_21_Int| Int) (|hhv_ULTIMATE.start_ULTIMATE.startEXIT_22_Int| Int) (|hhv_ULTIMATE.start_ULTIMATE.startEXIT_23_Int| Int) (|hhv_ULTIMATE.start_ULTIMATE.startEXIT_24_Int| Int) (|hhv_ULTIMATE.start_ULTIMATE.startEXIT_25_Int| Int) (|hhv_ULTIMATE.start_ULTIMATE.startEXIT_26_Int| Int) (|hhv_ULTIMATE.start_ULTIMATE.startEXIT_27_Int| Int) (|hhv_ULTIMATE.start_ULTIMATE.startEXIT_28_Int| Int) (|hhv_ULTIMATE.start_ULTIMATE.startEXIT_29_Int| Int) (|hhv_ULTIMATE.start_ULTIMATE.startEXIT_30_Int| Int) (|hhv_ULTIMATE.start_ULTIMATE.startEXIT_31_Int| Int) (|hhv_ULTIMATE.start_ULTIMATE.startEXIT_32_Int| Int) (|hhv_ULTIMATE.start_ULTIMATE.startEXIT_33_Int| Int) (|hhv_ULTIMATE.start_ULTIMATE.startEXIT_34_Int| Int) (|hhv_ULTIMATE.start_ULTIMATE.startEXIT_35_Int| Int) (|hhv_ULTIMATE.start_ULTIMATE.startEXIT_36_Int| Int) (|hhv_ULTIMATE.start_ULTIMATE.startEXIT_37_Int| Int) (|hhv_ULTIMATE.start_ULTIMATE.startEXIT_38_Int| Int) (|hhv_ULTIMATE.start_ULTIMATE.startEXIT_39_Int| Int) (|hhv_ULTIMATE.start_ULTIMATE.startEXIT_40_Int| Int) (|hhv_ULTIMATE.start_ULTIMATE.startEXIT_41_Int| Int) (|hbv_ULTIMATE.start_L2-1_42_Bool| Bool) (|.loc.6| Bool) (|.loc.7| Bool) (|.loc.8| Bool) (|.loc.9| Bool) (|.loc.10| Bool) (|hbv_ULTIMATE.start_L-1_1_Array_Int_Int| (Array Int Int)) (|.x.1397| Int) (|.x.1395| (Array Int Int)) (|.x.1393| Int) (|.x.1391| (Array Int Int)) (|.x.1387| Int) (|.x.1389| (Array Int Int)) (|.x.1388| (Array Int Int)) (|hhv_ULTIMATE.start_ULTIMATE.startEXIT_42_Bool| Bool) (|.x.1399| Int) (|.x.1400| Int) (|.x.1404| Int) (|.x.1409| Int) (|.x.1410| Int) (|.x.1411| Int) (|.x.1412| Int) (|.x.1417| Int) (|.x.1419| Int) (|.x.1420| Int) (|.x.1422| Int) (|.x.1425| Int) (|.loc.15| Bool) (|.loc.12| Bool) (|.loc.13| Bool) (|.loc.14| Bool) (|.x.1414| Int) (|.x.1402| Int) (|.x.1415| Int) (|.x.1426| Int) (|.loc.11| Bool) (|.x.1421| Int) (|.x.1416| Int) (|.x.1413| Int) (|.x.1390| (Array Int Int)) (|.x.1418| Int) (|.x.1424| Int) (|.x.1423| Int) (|.x.1407| Int) (|.x.1427| Int) (|.x.1408| Int) (|.x.1428| Int) (|.x.1405| Int) (|.x.1406| Int) (|.x.1403| Int) (|.x.1398| Int) (|.x.1401| Int) (|.x.1396| Int) (|.x.1392| Int) (|.x.1394| (Array Int Int)) (|.xtv.1| (Array Int Int))) (=> (and (state |hhv_ULTIMATE.start_ULTIMATE.startEXIT_0_Int| |hhv_ULTIMATE.start_ULTIMATE.startEXIT_1_Array_Int_Int| |hhv_ULTIMATE.start_ULTIMATE.startEXIT_2_Array_Int_Int| |hhv_ULTIMATE.start_ULTIMATE.startEXIT_3_Array_Int_Array_Int_Int| |hhv_ULTIMATE.start_ULTIMATE.startEXIT_4_Array_Int_Array_Int_Int| |hhv_ULTIMATE.start_ULTIMATE.startEXIT_5_Int| |hhv_ULTIMATE.start_ULTIMATE.startEXIT_6_Int| |hhv_ULTIMATE.start_ULTIMATE.startEXIT_7_Array_Int_Int| |hhv_ULTIMATE.start_ULTIMATE.startEXIT_8_Array_Int_Int| |hhv_ULTIMATE.start_ULTIMATE.startEXIT_9_Int| |hhv_ULTIMATE.start_ULTIMATE.startEXIT_10_Int| |hhv_ULTIMATE.start_ULTIMATE.startEXIT_11_Int| |hhv_ULTIMATE.start_ULTIMATE.startEXIT_12_Int| |hhv_ULTIMATE.start_ULTIMATE.startEXIT_13_Int| |hhv_ULTIMATE.start_ULTIMATE.startEXIT_14_Int| |hhv_ULTIMATE.start_ULTIMATE.startEXIT_15_Int| |hhv_ULTIMATE.start_ULTIMATE.startEXIT_16_Int| |hhv_ULTIMATE.start_ULTIMATE.startEXIT_17_Int| |hhv_ULTIMATE.start_ULTIMATE.startEXIT_18_Int| |hhv_ULTIMATE.start_ULTIMATE.startEXIT_19_Int| |hhv_ULTIMATE.start_ULTIMATE.startEXIT_20_Int| |hhv_ULTIMATE.start_ULTIMATE.startEXIT_21_Int| |hhv_ULTIMATE.start_ULTIMATE.startEXIT_22_Int| |hhv_ULTIMATE.start_ULTIMATE.startEXIT_23_Int| |hhv_ULTIMATE.start_ULTIMATE.startEXIT_24_Int| |hhv_ULTIMATE.start_ULTIMATE.startEXIT_25_Int| |hhv_ULTIMATE.start_ULTIMATE.startEXIT_26_Int| |hhv_ULTIMATE.start_ULTIMATE.startEXIT_27_Int| |hhv_ULTIMATE.start_ULTIMATE.startEXIT_28_Int| |hhv_ULTIMATE.start_ULTIMATE.startEXIT_29_Int| |hhv_ULTIMATE.start_ULTIMATE.startEXIT_30_Int| |hhv_ULTIMATE.start_ULTIMATE.startEXIT_31_Int| |hhv_ULTIMATE.start_ULTIMATE.startEXIT_32_Int| |hhv_ULTIMATE.start_ULTIMATE.startEXIT_33_Int| |hhv_ULTIMATE.start_ULTIMATE.startEXIT_34_Int| |hhv_ULTIMATE.start_ULTIMATE.startEXIT_35_Int| |hhv_ULTIMATE.start_ULTIMATE.startEXIT_36_Int| |hhv_ULTIMATE.start_ULTIMATE.startEXIT_37_Int| |hhv_ULTIMATE.start_ULTIMATE.startEXIT_38_Int| |hhv_ULTIMATE.start_ULTIMATE.startEXIT_39_Int| |hhv_ULTIMATE.start_ULTIMATE.startEXIT_40_Int| |hhv_ULTIMATE.start_ULTIMATE.startEXIT_41_Int| |hbv_ULTIMATE.start_L2-1_42_Bool| |.loc.6| |.loc.7| |.loc.8| |.loc.9| |.loc.10| |hbv_ULTIMATE.start_L-1_1_Array_Int_Int|) (let ((.def_59 (not .loc.7))) (let ((.def_61 (not .loc.8))) (let ((.def_63 (not .loc.9))) (let ((.def_98 (= hhv_ULTIMATE.start_ULTIMATE.startEXIT_1_Array_Int_Int .x.1388))) (let ((.def_102 (= hhv_ULTIMATE.start_ULTIMATE.startEXIT_12_Int .x.1399))) (let ((.def_105 (= hhv_ULTIMATE.start_ULTIMATE.startEXIT_13_Int .x.1400))) (let ((.def_108 (= hhv_ULTIMATE.start_ULTIMATE.startEXIT_17_Int .x.1404))) (let ((.def_111 (= hhv_ULTIMATE.start_ULTIMATE.startEXIT_22_Int .x.1409))) (let ((.def_114 (= hhv_ULTIMATE.start_ULTIMATE.startEXIT_23_Int .x.1410))) (let ((.def_117 (= hhv_ULTIMATE.start_ULTIMATE.startEXIT_24_Int .x.1411))) (let ((.def_120 (= hhv_ULTIMATE.start_ULTIMATE.startEXIT_25_Int .x.1412))) (let ((.def_123 (= hhv_ULTIMATE.start_ULTIMATE.startEXIT_30_Int .x.1417))) (let ((.def_126 (= hhv_ULTIMATE.start_ULTIMATE.startEXIT_32_Int .x.1419))) (let ((.def_129 (= hhv_ULTIMATE.start_ULTIMATE.startEXIT_33_Int .x.1420))) (let ((.def_132 (= hhv_ULTIMATE.start_ULTIMATE.startEXIT_35_Int .x.1422))) (let ((.def_135 (= hhv_ULTIMATE.start_ULTIMATE.startEXIT_38_Int .x.1425))) (let ((.def_137 (not .loc.6))) (let ((.def_152 (= hbv_ULTIMATE.start_L2-1_42_Bool hhv_ULTIMATE.start_ULTIMATE.startEXIT_42_Bool))) (let ((.def_159 (not .loc.12))) (let ((.def_162 (not .loc.13))) (let ((.def_165 (not .loc.14))) (let ((.def_168 (= hhv_ULTIMATE.start_ULTIMATE.startEXIT_15_Int 0))) (let ((.def_171 (and .def_105 (and .def_98 .def_102)))) (let ((.def_181 (and .def_135 (and .def_132 (and .def_129 (and .def_126 (and .def_123 (and .def_120 (and .def_117 (and .def_114 (and .def_111 (and .def_108 .def_171)))))))))))) (let ((.def_187 (not .loc.15))) (let ((.def_193 (= hhv_ULTIMATE.start_ULTIMATE.startEXIT_27_Int .x.1414))) (let ((.def_195 (= hhv_ULTIMATE.start_ULTIMATE.startEXIT_15_Int .x.1402))) (let ((.def_198 (= hhv_ULTIMATE.start_ULTIMATE.startEXIT_28_Int .x.1415))) (let ((.def_201 (= hhv_ULTIMATE.start_ULTIMATE.startEXIT_39_Int .x.1426))) (let ((.def_204 (not .loc.11))) (let ((.def_212 (<= 100000 hhv_ULTIMATE.start_ULTIMATE.startEXIT_34_Int))) (let ((.def_217 (select hhv_ULTIMATE.start_ULTIMATE.startEXIT_3_Array_Int_Array_Int_Int hhv_ULTIMATE.start_ULTIMATE.startEXIT_33_Int))) (let ((.def_222 (select hhv_ULTIMATE.start_ULTIMATE.startEXIT_3_Array_Int_Array_Int_Int hhv_ULTIMATE.start_ULTIMATE.startEXIT_32_Int))) (let ((.def_242 (= hhv_ULTIMATE.start_ULTIMATE.startEXIT_34_Int .x.1421))) (let ((.def_244 (= hhv_ULTIMATE.start_ULTIMATE.startEXIT_29_Int .x.1416))) (let ((.def_255 (and .def_108 (and .def_171 .def_195)))) (let ((.def_259 (and .def_120 (and .def_117 (and .def_114 (and .def_111 .def_255)))))) (let ((.def_285 (and .def_129 (and .def_126 (and .def_123 (and .def_244 (and .def_198 (and .def_193 .def_259)))))))) (let ((.def_301 (and hbv_ULTIMATE.start_L2-1_42_Bool .def_98))) (let ((.def_319 (and .def_201 (and .def_135 (and .def_132 (and .def_242 (and .def_129 (and .def_126 (and .def_123 (and .def_244 (and .def_198 (and .def_193 (and .def_120 (and .def_117 (and .def_114 (and .def_111 (and .def_108 (and .def_195 (and .def_105 (and .def_102 .def_301)))))))))))))))))))) (let ((.def_335 (and .def_201 (and .def_135 (and .def_132 (and .def_242 .def_285)))))) (let ((.def_361 (and .def_137 (and .loc.9 (and .loc.7 .def_335))))) (let ((.def_369 (<= 100000 hhv_ULTIMATE.start_ULTIMATE.startEXIT_31_Int))) (let ((.def_370 (or hbv_ULTIMATE.start_L2-1_42_Bool .def_369))) (let ((.def_374 (= hhv_ULTIMATE.start_ULTIMATE.startEXIT_26_Int .x.1413))) (let ((.def_376 (= hhv_ULTIMATE.start_ULTIMATE.startEXIT_3_Array_Int_Array_Int_Int .x.1390))) (let ((.def_379 (= hhv_ULTIMATE.start_ULTIMATE.startEXIT_31_Int .x.1418))) (let ((.def_382 (= hhv_ULTIMATE.start_ULTIMATE.startEXIT_37_Int .x.1424))) (let ((.def_385 (* 4 hhv_ULTIMATE.start_ULTIMATE.startEXIT_31_Int))) (let ((.def_393 (not .def_369))) (let ((.def_406 (or hhv_ULTIMATE.start_ULTIMATE.startEXIT_42_Bool (= (+ hhv_ULTIMATE.start_ULTIMATE.startEXIT_31_Int (* (- 1) .x.1418)) (- 1))))) (let ((.def_416 (and .def_108 (and .def_195 (and .def_105 (and .def_102 (and .def_98 .def_376))))))) (let ((.def_425 (and .def_123 (and .def_244 (and .def_198 (and .def_193 (and .def_374 (and .def_120 (and .def_117 (and .def_114 (and .def_111 .def_416))))))))))) (let ((.def_433 (and .def_201 (and .def_135 (and .def_382 (and .def_132 (and .def_242 (and .def_129 (and .def_126 (and .def_379 .def_425)))))))))) (let ((.def_450 (and .def_108 (and .def_195 (and .def_105 (and .def_102 (and .def_301 .def_376))))))) (let ((.def_467 (and .def_201 (and .def_135 (and .def_382 (and .def_132 (and .def_242 (and .def_129 (and .def_126 (and .def_379 (and .def_123 (and .def_244 (and .def_198 (and .def_193 (and .def_374 (and .def_120 (and .def_117 (and .def_114 (and .def_111 .def_450))))))))))))))))))) (let ((.def_497 (or hbv_ULTIMATE.start_L2-1_42_Bool (= .x.1418 0)))) (let ((.def_524 (= hhv_ULTIMATE.start_ULTIMATE.startEXIT_36_Int .x.1423))) (let ((.def_526 (= hhv_ULTIMATE.start_ULTIMATE.startEXIT_20_Int .x.1407))) (let ((.def_530 (select hhv_ULTIMATE.start_ULTIMATE.startEXIT_3_Array_Int_Array_Int_Int hhv_ULTIMATE.start_ULTIMATE.startEXIT_13_Int))) (let ((.def_562 (and .def_416 .def_526))) (let ((.def_571 (and .def_123 (and .def_244 (and .def_198 (and .def_193 (and .def_374 (and .def_120 (and .def_117 (and .def_114 (and .def_111 .def_562))))))))))) (let ((.def_592 (and .def_450 .def_526))) (let ((.def_644 (= hhv_ULTIMATE.start_ULTIMATE.startEXIT_40_Int .x.1427))) (let ((.def_646 (= hhv_ULTIMATE.start_ULTIMATE.startEXIT_21_Int .x.1408))) (let ((.def_650 (select hhv_ULTIMATE.start_ULTIMATE.startEXIT_3_Array_Int_Array_Int_Int hhv_ULTIMATE.start_ULTIMATE.startEXIT_23_Int))) (let ((.def_657 (and .def_255 .def_526))) (let ((.def_697 (and .def_123 (and .def_244 (and .def_198 (and .def_193 (and .def_374 (and .def_120 (and .def_117 (and .def_114 (and .def_111 (and .def_562 .def_646)))))))))))) (let ((.def_773 (= hhv_ULTIMATE.start_ULTIMATE.startEXIT_41_Int .x.1428))) (let ((.def_775 (= hhv_ULTIMATE.start_ULTIMATE.startEXIT_18_Int .x.1405))) (let ((.def_829 (and .def_123 (and .def_244 (and .def_198 (and .def_193 (and .def_374 (and .def_120 (and .def_117 (and .def_114 (and .def_111 (and .def_646 (and .def_526 (and .def_416 .def_775)))))))))))))) (let ((.def_886 (<= 100000 hhv_ULTIMATE.start_ULTIMATE.startEXIT_14_Int))) (let ((.def_928 (store hhv_ULTIMATE.start_ULTIMATE.startEXIT_3_Array_Int_Array_Int_Int hhv_ULTIMATE.start_ULTIMATE.startEXIT_33_Int (store .def_217 (+ (* 4 hhv_ULTIMATE.start_ULTIMATE.startEXIT_14_Int) hhv_ULTIMATE.start_ULTIMATE.startEXIT_35_Int) hhv_ULTIMATE.start_ULTIMATE.startEXIT_11_Int)))) (let ((.def_1014 (store hbv_ULTIMATE.start_L-1_1_Array_Int_Int .x.1420 1))) (let ((.def_1033 (store .def_1014 .x.1410 1))) (let ((.def_1034 (store .def_1033 .x.1400 1))) (let ((.def_1035 (store .def_1034 .x.1411 1))) (and (and (not .loc.10) (and (= hhv_ULTIMATE.start_ULTIMATE.startEXIT_10_Int .x.1397) (and (= hhv_ULTIMATE.start_ULTIMATE.startEXIT_8_Array_Int_Int .x.1395) (and (= hhv_ULTIMATE.start_ULTIMATE.startEXIT_6_Int .x.1393) (and (= hhv_ULTIMATE.start_ULTIMATE.startEXIT_4_Array_Int_Array_Int_Int .x.1391) (and (= hhv_ULTIMATE.start_ULTIMATE.startEXIT_0_Int .x.1387) (= hhv_ULTIMATE.start_ULTIMATE.startEXIT_2_Array_Int_Int .x.1389))))))) (or (and (or (and (or (or (or (or (and (or (or (or (or (and (or (or (or (or (and (or (or (or (or (or (or (and (or (or (or (or (or (or (and (or (and (or (and (or (and (and (and (and (and (and (and (and (and (and (and (and (and (and .def_98 hhv_ULTIMATE.start_ULTIMATE.startEXIT_42_Bool) .def_102) .def_105) .def_108) .def_111) .def_114) .def_117) .def_120) .def_123) .def_126) .def_129) .def_132) .def_135) .def_137) (and (or hbv_ULTIMATE.start_L2-1_42_Bool (and (= .x.1388 (store (store (store (store (store hhv_ULTIMATE.start_ULTIMATE.startEXIT_1_Array_Int_Int hhv_ULTIMATE.start_ULTIMATE.startEXIT_33_Int 0) hhv_ULTIMATE.start_ULTIMATE.startEXIT_23_Int 0) hhv_ULTIMATE.start_ULTIMATE.startEXIT_13_Int 0) hhv_ULTIMATE.start_ULTIMATE.startEXIT_24_Int 0) hhv_ULTIMATE.start_ULTIMATE.startEXIT_32_Int 0)) (= .x.1425 0))) (and (and .loc.6 (or hhv_ULTIMATE.start_ULTIMATE.startEXIT_42_Bool (= .x.1412 .x.1425))) .def_152))) (and (and (and (and .loc.7 .loc.15) .def_159) .def_162) .def_165)) (and (or hbv_ULTIMATE.start_L2-1_42_Bool .def_168) (and .def_59 (and (and .def_152 (and .loc.14 (and .loc.13 (and .loc.12 (and .loc.6 .def_181))))) .def_187)))) (and (and (and (and .def_193 .def_195) .def_198) .def_201) .def_204)) (and (or hbv_ULTIMATE.start_L2-1_42_Bool (and (= .x.1426 (ite (= .x.1414 .x.1415) 1 0)) (and (not .def_212) (and (= .x.1414 (select .def_217 (+ (* 4 hhv_ULTIMATE.start_ULTIMATE.startEXIT_34_Int) hhv_ULTIMATE.start_ULTIMATE.startEXIT_35_Int))) (and (= .x.1415 (select .def_222 (+ hhv_ULTIMATE.start_ULTIMATE.startEXIT_17_Int (* 4 hhv_ULTIMATE.start_ULTIMATE.startEXIT_34_Int)))) (= .x.1402 .x.1426)))))) (and .def_59 (and .def_187 (and .def_152 (and .def_159 (and .loc.14 (and .loc.13 (and .loc.11 (and .def_137 .def_181)))))))))) (and .loc.9 (and .loc.8 (and .def_242 .def_244)))) (and (or hhv_ULTIMATE.start_ULTIMATE.startEXIT_42_Bool (= (+ hhv_ULTIMATE.start_ULTIMATE.startEXIT_34_Int (* (- 1) .x.1421)) (- 1))) (and .def_61 (and .def_63 (and .def_59 (and .def_187 (and .def_152 (and .def_159 (and .def_204 (and .loc.14 (and .loc.13 (and .def_137 (and .def_201 (and .def_135 (and .def_132 (and .def_129 (and .def_126 (and .def_123 .def_259)))))))))))))))))) (and (or hbv_ULTIMATE.start_L2-1_42_Bool (= .x.1421 0)) (and .def_61 (and .def_187 (and .def_152 (and .def_159 (and .def_204 (and .loc.14 (and .loc.13 (and .loc.9 (and .loc.7 (and .loc.6 (and .def_201 (and .def_135 (and .def_132 .def_285))))))))))))))) (and .def_59 (and .def_187 (and .def_152 (and .loc.14 (and .loc.13 (and .loc.12 (and .loc.11 (and .def_137 (and .loc.9 (and .loc.8 .def_319))))))))))) (and (or hbv_ULTIMATE.start_L2-1_42_Bool .def_212) (and .def_59 (and .def_187 (and .def_152 (and .loc.14 (and .loc.13 (and .loc.12 (and .loc.11 (and .def_137 (and .loc.9 (and .loc.8 .def_335)))))))))))) (and .def_61 (and .def_187 (and .def_152 (and .def_162 (and .loc.14 (and .loc.12 (and .loc.11 (and .def_137 (and .loc.9 (and .loc.7 .def_319))))))))))) (and (and .def_61 (and .def_187 (and .def_152 (and .def_162 (and .loc.14 (and .loc.12 (and .loc.11 .def_361))))))) .def_370)) (and (and (and .def_374 .def_376) .def_379) .def_382)) (and (or hbv_ULTIMATE.start_L2-1_42_Bool (and (= .x.1390 (store hhv_ULTIMATE.start_ULTIMATE.startEXIT_3_Array_Int_Array_Int_Int hhv_ULTIMATE.start_ULTIMATE.startEXIT_32_Int (store .def_222 (+ hhv_ULTIMATE.start_ULTIMATE.startEXIT_17_Int .def_385) (select (select hhv_ULTIMATE.start_ULTIMATE.startEXIT_3_Array_Int_Array_Int_Int hhv_ULTIMATE.start_ULTIMATE.startEXIT_24_Int) (+ hhv_ULTIMATE.start_ULTIMATE.startEXIT_30_Int .def_385))))) .def_393)) (and (and .def_61 (and .def_187 (and .def_152 (and .def_162 (and .def_204 (and .loc.14 (and .loc.12 .def_361))))))) .def_406))) (and (or hbv_ULTIMATE.start_L2-1_42_Bool (not .def_168)) (and .def_59 (and .def_187 (and .def_152 (and .def_165 (and .def_162 (and .def_159 (and .def_204 (and .loc.9 (and .loc.8 (and .loc.6 .def_433)))))))))))) (and .def_187 (and .def_152 (and .def_165 (and .def_162 (and .def_159 (and .def_204 (and .def_137 (and .loc.9 (and .loc.8 (and .loc.7 .def_467))))))))))) (and (and .def_61 (and .def_59 (and .def_187 (and .def_152 (and .def_162 (and .def_204 (and .loc.14 (and .loc.12 (and .loc.9 (and .loc.6 (and .def_201 (and .def_135 (and .def_382 (and .def_132 (and .def_242 (and .def_129 (and .def_126 .def_425))))))))))))))))) .def_497)) (and .def_61 (and .def_59 (and .def_187 (and .def_152 (and .def_162 (and .def_159 (and .loc.14 (and .loc.11 (and .def_137 (and .loc.9 .def_467))))))))))) (and .def_370 (and .def_61 (and .def_59 (and .def_187 (and .def_152 (and .def_162 (and .def_159 (and .loc.14 (and .loc.11 (and .def_137 (and .loc.9 .def_433)))))))))))) (and .def_524 .def_526)) (and (or hbv_ULTIMATE.start_L2-1_42_Bool (and .def_393 (= .x.1390 (store hhv_ULTIMATE.start_ULTIMATE.startEXIT_3_Array_Int_Array_Int_Int hhv_ULTIMATE.start_ULTIMATE.startEXIT_32_Int (store .def_222 (+ hhv_ULTIMATE.start_ULTIMATE.startEXIT_17_Int .def_385) (select .def_530 (+ hhv_ULTIMATE.start_ULTIMATE.startEXIT_22_Int .def_385))))))) (and .def_406 (and .def_61 (and .def_59 (and .def_187 (and .def_152 (and .def_162 (and .def_159 (and .def_204 (and .loc.14 (and .def_137 (and .loc.9 (and .def_201 (and .def_135 (and .def_382 (and .def_132 (and .def_242 (and .def_129 (and .def_126 (and .def_123 (and .def_244 (and .def_198 (and .def_193 (and .def_259 .def_374))))))))))))))))))))))))) (and .def_497 (and .def_63 (and .def_187 (and .def_152 (and .def_162 (and .def_159 (and .def_204 (and .loc.14 (and .loc.8 (and .loc.7 (and .loc.6 (and .def_201 (and .def_135 (and .def_382 (and .def_524 (and .def_132 (and .def_242 (and .def_129 (and .def_126 .def_571)))))))))))))))))))) (and .def_63 (and .def_187 (and .def_152 (and .def_165 (and .loc.13 (and .loc.12 (and .loc.11 (and .def_137 (and .loc.8 (and .loc.7 (and .def_201 (and .def_135 (and .def_382 (and .def_524 (and .def_132 (and .def_242 (and .def_129 (and .def_126 (and .def_379 (and .def_123 (and .def_244 (and .def_198 (and .def_193 (and .def_374 (and .def_120 (and .def_117 (and .def_114 (and .def_111 .def_592))))))))))))))))))))))))))))) (and .def_370 (and .def_63 (and .def_187 (and .def_152 (and .def_165 (and .loc.13 (and .loc.12 (and .loc.11 (and .def_137 (and .loc.8 (and .loc.7 (and .def_201 (and .def_135 (and .def_382 (and .def_524 (and .def_132 (and .def_242 (and .def_129 (and .def_126 (and .def_379 .def_571))))))))))))))))))))) (and .def_644 .def_646)) (and (or hbv_ULTIMATE.start_L2-1_42_Bool (and .def_393 (= .x.1390 (store hhv_ULTIMATE.start_ULTIMATE.startEXIT_3_Array_Int_Array_Int_Int hhv_ULTIMATE.start_ULTIMATE.startEXIT_13_Int (store .def_530 (+ hhv_ULTIMATE.start_ULTIMATE.startEXIT_22_Int .def_385) (select .def_650 (+ hhv_ULTIMATE.start_ULTIMATE.startEXIT_12_Int .def_385))))))) (and .def_406 (and .def_63 (and .def_187 (and .def_152 (and .def_165 (and .def_204 (and .loc.13 (and .loc.12 (and .def_137 (and .loc.8 (and .loc.7 (and .def_201 (and .def_135 (and .def_382 (and .def_524 (and .def_132 (and .def_242 (and .def_129 (and .def_126 (and .def_123 (and .def_244 (and .def_198 (and .def_193 (and .def_374 (and .def_120 (and .def_117 (and .def_114 (and .def_111 .def_657)))))))))))))))))))))))))))))) (and .def_497 (and .def_63 (and .def_59 (and .def_187 (and .def_152 (and .def_165 (and .def_204 (and .loc.13 (and .loc.12 (and .loc.8 (and .loc.6 (and .def_644 (and .def_201 (and .def_135 (and .def_382 (and .def_524 (and .def_132 (and .def_242 (and .def_129 (and .def_126 .def_697))))))))))))))))))))) (and .def_63 (and .def_59 (and .def_187 (and .def_152 (and .def_165 (and .def_159 (and .loc.13 (and .loc.11 (and .def_137 (and .loc.8 (and .def_644 (and .def_201 (and .def_135 (and .def_382 (and .def_524 (and .def_132 (and .def_242 (and .def_129 (and .def_126 (and .def_379 (and .def_123 (and .def_244 (and .def_198 (and .def_193 (and .def_374 (and .def_120 (and .def_117 (and .def_114 (and .def_111 (and .def_592 .def_646))))))))))))))))))))))))))))))) (and .def_370 (and .def_63 (and .def_59 (and .def_187 (and .def_152 (and .def_165 (and .def_159 (and .loc.13 (and .loc.11 (and .def_137 (and .loc.8 (and .def_644 (and .def_201 (and .def_135 (and .def_382 (and .def_524 (and .def_132 (and .def_242 (and .def_129 (and .def_126 (and .def_379 .def_697)))))))))))))))))))))) (and .def_773 .def_775)) (and (or hbv_ULTIMATE.start_L2-1_42_Bool (and .def_393 (= .x.1390 (store hhv_ULTIMATE.start_ULTIMATE.startEXIT_3_Array_Int_Array_Int_Int hhv_ULTIMATE.start_ULTIMATE.startEXIT_23_Int (store .def_650 (+ hhv_ULTIMATE.start_ULTIMATE.startEXIT_12_Int .def_385) (select .def_217 (+ .def_385 hhv_ULTIMATE.start_ULTIMATE.startEXIT_35_Int))))))) (and .def_406 (and .def_63 (and .def_59 (and .def_187 (and .def_152 (and .def_165 (and .def_159 (and .def_204 (and .loc.13 (and .def_137 (and .loc.8 (and .def_644 (and .def_201 (and .def_135 (and .def_382 (and .def_524 (and .def_132 (and .def_242 (and .def_129 (and .def_126 (and .def_123 (and .def_244 (and .def_198 (and .def_193 (and .def_374 (and .def_120 (and .def_117 (and .def_114 (and .def_111 (and .def_646 .def_657)))))))))))))))))))))))))))))))) (and .def_497 (and .def_61 (and .def_63 (and .def_187 (and .def_152 (and .def_165 (and .def_159 (and .def_204 (and .loc.13 (and .loc.7 (and .loc.6 (and .def_773 (and .def_644 (and .def_201 (and .def_135 (and .def_382 (and .def_524 (and .def_132 (and .def_242 (and .def_129 (and .def_126 .def_829)))))))))))))))))))))) (and .def_61 (and .def_63 (and .def_187 (and .def_152 (and .def_165 (and .def_162 (and .loc.12 (and .loc.11 (and .def_137 (and .loc.7 (and .def_773 (and .def_644 (and .def_201 (and .def_135 (and .def_382 (and .def_524 (and .def_132 (and .def_242 (and .def_129 (and .def_126 (and .def_379 (and .def_123 (and .def_244 (and .def_198 (and .def_193 (and .def_374 (and .def_120 (and .def_117 (and .def_114 (and .def_111 (and .def_646 (and .def_526 (and .def_450 .def_775)))))))))))))))))))))))))))))))))) (and (or hbv_ULTIMATE.start_L2-1_42_Bool .def_886) (and .def_61 (and .def_63 (and .def_187 (and .def_152 (and .def_165 (and .def_162 (and .loc.12 (and .loc.11 (and .def_137 (and .loc.7 (and .def_773 (and .def_644 (and .def_201 (and .def_135 (and .def_382 (and .def_524 (and .def_132 (and .def_242 (and .def_129 (and .def_126 (and .def_379 .def_829))))))))))))))))))))))) (and (= hhv_ULTIMATE.start_ULTIMATE.startEXIT_19_Int .x.1406) (and (= hhv_ULTIMATE.start_ULTIMATE.startEXIT_16_Int .x.1403) (and (= hhv_ULTIMATE.start_ULTIMATE.startEXIT_11_Int .x.1398) (= hhv_ULTIMATE.start_ULTIMATE.startEXIT_14_Int .x.1401))))) (and (or hbv_ULTIMATE.start_L2-1_42_Bool (and (and (and (and (and (= .x.1390 (store .def_928 hhv_ULTIMATE.start_ULTIMATE.startEXIT_24_Int (store (select .def_928 hhv_ULTIMATE.start_ULTIMATE.startEXIT_24_Int) (+ (* 4 hhv_ULTIMATE.start_ULTIMATE.startEXIT_14_Int) hhv_ULTIMATE.start_ULTIMATE.startEXIT_30_Int) hhv_ULTIMATE.start_ULTIMATE.startEXIT_16_Int))) (not .def_886)) (<= (- 2147483648) hhv_ULTIMATE.start_ULTIMATE.startEXIT_16_Int)) (<= hhv_ULTIMATE.start_ULTIMATE.startEXIT_11_Int 2147483647)) (<= hhv_ULTIMATE.start_ULTIMATE.startEXIT_16_Int 2147483647)) (<= (- 2147483648) hhv_ULTIMATE.start_ULTIMATE.startEXIT_11_Int))) (and (or hhv_ULTIMATE.start_ULTIMATE.startEXIT_42_Bool (= (+ hhv_ULTIMATE.start_ULTIMATE.startEXIT_14_Int (* (- 1) .x.1401)) (- 1))) (and .def_61 (and .def_63 (and .def_187 (and .def_152 (and .def_165 (and .def_162 (and .def_204 (and .loc.12 (and .def_137 (and .loc.7 (and .def_773 (and .def_644 (and .def_201 (and .def_135 (and .def_382 (and .def_524 (and .def_132 (and .def_242 (and .def_129 (and .def_126 (and .def_379 (and .def_123 (and .def_244 (and .def_198 (and .def_193 (and .def_374 (and .def_120 (and .def_117 (and .def_114 (and .def_111 (and .def_646 (and .def_526 (and .def_255 .def_775)))))))))))))))))))))))))))))))))))) (and (= hhv_ULTIMATE.start_ULTIMATE.startEXIT_9_Int .x.1396) (and (= hhv_ULTIMATE.start_ULTIMATE.startEXIT_5_Int .x.1392) (= hhv_ULTIMATE.start_ULTIMATE.startEXIT_7_Array_Int_Int .x.1394)))) (and (or hbv_ULTIMATE.start_L2-1_42_Bool (and (and (= .x.1392 0) (= .x.1396 0)) (= hbv_ULTIMATE.start_L-1_1_Array_Int_Int (store hhv_ULTIMATE.start_ULTIMATE.startEXIT_1_Array_Int_Int 0 0)))) (and (or hhv_ULTIMATE.start_ULTIMATE.startEXIT_42_Bool (and (and (and (and (and (and (and (and (and (and (and (and (and (and (and (and (and (and (= .x.1394 (store (store (store (store (store hhv_ULTIMATE.start_ULTIMATE.startEXIT_7_Array_Int_Int .x.1420 400000) .x.1410 400000) .x.1400 400000) .x.1411 400000) .x.1419 400000)) (and (= .x.1399 0) (and (= (select hbv_ULTIMATE.start_L-1_1_Array_Int_Int .x.1420) 0) (and (= (select .def_1014 .x.1410) 0) (and (= .x.1422 0) (= .x.1404 0)))))) (not (<= .x.1387 .x.1410))) (not (= .x.1411 0))) (not (<= .x.1387 .x.1400))) (= .x.1388 (store .def_1035 .x.1419 1))) (not (= .x.1410 0))) (= (select .def_1033 .x.1400) 0)) (not (<= .x.1387 .x.1420))) (not (= .x.1400 0))) (not (<= .x.1387 .x.1419))) (= .x.1417 0)) (= (select .def_1034 .x.1411) 0)) (not (= .x.1420 0))) (not (<= .x.1387 .x.1411))) (= .x.1401 0)) (= (select .def_1035 .x.1419) 0)) (= .x.1409 0)) (not (= .x.1419 0)))) (and .def_61 (and .def_63 (and .def_59 (and .def_187 (and .def_152 (and .def_165 (and .def_162 (and .def_204 (and .loc.12 (and .loc.6 (and .def_201 (and .def_120 (and .def_195 .def_376))))))))))))))))))))))))))))))))))))))))))))))))))))))))))))))))))))))))))))))))))))))))))))))) (state |.x.1387| |.x.1388| |.x.1389| |.x.1390| |.x.1391| |.x.1392| |.x.1393| |.x.1394| |.x.1395| |.x.1396| |.x.1397| |.x.1398| |.x.1399| |.x.1400| |.x.1401| |.x.1402| |.x.1403| |.x.1404| |.x.1405| |.x.1406| |.x.1407| |.x.1408| |.x.1409| |.x.1410| |.x.1411| |.x.1412| |.x.1413| |.x.1414| |.x.1415| |.x.1416| |.x.1417| |.x.1418| |.x.1419| |.x.1420| |.x.1421| |.x.1422| |.x.1423| |.x.1424| |.x.1425| |.x.1426| |.x.1427| |.x.1428| |hhv_ULTIMATE.start_ULTIMATE.startEXIT_42_Bool| |.loc.11| |.loc.12| |.loc.13| |.loc.14| |.loc.15| |.xtv.1|))))
(assert (forall ((|hhv_ULTIMATE.start_ULTIMATE.startEXIT_0_Int| Int) (|hhv_ULTIMATE.start_ULTIMATE.startEXIT_1_Array_Int_Int| (Array Int Int)) (|hhv_ULTIMATE.start_ULTIMATE.startEXIT_2_Array_Int_Int| (Array Int Int)) (|hhv_ULTIMATE.start_ULTIMATE.startEXIT_3_Array_Int_Array_Int_Int| (Array Int Int)) (|hhv_ULTIMATE.start_ULTIMATE.startEXIT_4_Array_Int_Array_Int_Int| (Array Int Int)) (|hhv_ULTIMATE.start_ULTIMATE.startEXIT_5_Int| Int) (|hhv_ULTIMATE.start_ULTIMATE.startEXIT_6_Int| Int) (|hhv_ULTIMATE.start_ULTIMATE.startEXIT_7_Array_Int_Int| (Array Int Int)) (|hhv_ULTIMATE.start_ULTIMATE.startEXIT_8_Array_Int_Int| (Array Int Int)) (|hhv_ULTIMATE.start_ULTIMATE.startEXIT_9_Int| Int) (|hhv_ULTIMATE.start_ULTIMATE.startEXIT_10_Int| Int) (|hhv_ULTIMATE.start_ULTIMATE.startEXIT_11_Int| Int) (|hhv_ULTIMATE.start_ULTIMATE.startEXIT_12_Int| Int) (|hhv_ULTIMATE.start_ULTIMATE.startEXIT_13_Int| Int) (|hhv_ULTIMATE.start_ULTIMATE.startEXIT_14_Int| Int) (|hhv_ULTIMATE.start_ULTIMATE.startEXIT_15_Int| Int) (|hhv_ULTIMATE.start_ULTIMATE.startEXIT_16_Int| Int) (|hhv_ULTIMATE.start_ULTIMATE.startEXIT_17_Int| Int) (|hhv_ULTIMATE.start_ULTIMATE.startEXIT_18_Int| Int) (|hhv_ULTIMATE.start_ULTIMATE.startEXIT_19_Int| Int) (|hhv_ULTIMATE.start_ULTIMATE.startEXIT_20_Int| Int) (|hhv_ULTIMATE.start_ULTIMATE.startEXIT_21_Int| Int) (|hhv_ULTIMATE.start_ULTIMATE.startEXIT_22_Int| Int) (|hhv_ULTIMATE.start_ULTIMATE.startEXIT_23_Int| Int) (|hhv_ULTIMATE.start_ULTIMATE.startEXIT_24_Int| Int) (|hhv_ULTIMATE.start_ULTIMATE.startEXIT_25_Int| Int) (|hhv_ULTIMATE.start_ULTIMATE.startEXIT_26_Int| Int) (|hhv_ULTIMATE.start_ULTIMATE.startEXIT_27_Int| Int) (|hhv_ULTIMATE.start_ULTIMATE.startEXIT_28_Int| Int) (|hhv_ULTIMATE.start_ULTIMATE.startEXIT_29_Int| Int) (|hhv_ULTIMATE.start_ULTIMATE.startEXIT_30_Int| Int) (|hhv_ULTIMATE.start_ULTIMATE.startEXIT_31_Int| Int) (|hhv_ULTIMATE.start_ULTIMATE.startEXIT_32_Int| Int) (|hhv_ULTIMATE.start_ULTIMATE.startEXIT_33_Int| Int) (|hhv_ULTIMATE.start_ULTIMATE.startEXIT_34_Int| Int) (|hhv_ULTIMATE.start_ULTIMATE.startEXIT_35_Int| Int) (|hhv_ULTIMATE.start_ULTIMATE.startEXIT_36_Int| Int) (|hhv_ULTIMATE.start_ULTIMATE.startEXIT_37_Int| Int) (|hhv_ULTIMATE.start_ULTIMATE.startEXIT_38_Int| Int) (|hhv_ULTIMATE.start_ULTIMATE.startEXIT_39_Int| Int) (|hhv_ULTIMATE.start_ULTIMATE.startEXIT_40_Int| Int) (|hhv_ULTIMATE.start_ULTIMATE.startEXIT_41_Int| Int) (|hbv_ULTIMATE.start_L2-1_42_Bool| Bool) (|.loc.6| Bool) (|.loc.7| Bool) (|.loc.8| Bool) (|.loc.9| Bool) (|.loc.10| Bool) (|hbv_ULTIMATE.start_L-1_1_Array_Int_Int| (Array Int Int)) (|.x.1397| Int) (|.x.1395| (Array Int Int)) (|.x.1393| Int) (|.x.1391| (Array Int Int)) (|.x.1387| Int) (|.x.1389| (Array Int Int)) (|.x.1388| (Array Int Int)) (|hhv_ULTIMATE.start_ULTIMATE.startEXIT_42_Bool| Bool) (|.x.1399| Int) (|.x.1400| Int) (|.x.1404| Int) (|.x.1409| Int) (|.x.1410| Int) (|.x.1411| Int) (|.x.1412| Int) (|.x.1417| Int) (|.x.1419| Int) (|.x.1420| Int) (|.x.1422| Int) (|.x.1425| Int) (|.loc.15| Bool) (|.loc.12| Bool) (|.loc.13| Bool) (|.loc.14| Bool) (|.x.1414| Int) (|.x.1402| Int) (|.x.1415| Int) (|.x.1426| Int) (|.loc.11| Bool) (|.x.1421| Int) (|.x.1416| Int) (|.x.1413| Int) (|.x.1390| (Array Int Int)) (|.x.1418| Int) (|.x.1424| Int) (|.x.1423| Int) (|.x.1407| Int) (|.x.1427| Int) (|.x.1408| Int) (|.x.1428| Int) (|.x.1405| Int) (|.x.1406| Int) (|.x.1403| Int) (|.x.1398| Int) (|.x.1401| Int) (|.x.1396| Int) (|.x.1392| Int) (|.x.1394| (Array Int Int)) (|.xtv.1| (Array Int Int))) (=> (state |hhv_ULTIMATE.start_ULTIMATE.startEXIT_0_Int| |hhv_ULTIMATE.start_ULTIMATE.startEXIT_1_Array_Int_Int| |hhv_ULTIMATE.start_ULTIMATE.startEXIT_2_Array_Int_Int| |hhv_ULTIMATE.start_ULTIMATE.startEXIT_3_Array_Int_Array_Int_Int| |hhv_ULTIMATE.start_ULTIMATE.startEXIT_4_Array_Int_Array_Int_Int| |hhv_ULTIMATE.start_ULTIMATE.startEXIT_5_Int| |hhv_ULTIMATE.start_ULTIMATE.startEXIT_6_Int| |hhv_ULTIMATE.start_ULTIMATE.startEXIT_7_Array_Int_Int| |hhv_ULTIMATE.start_ULTIMATE.startEXIT_8_Array_Int_Int| |hhv_ULTIMATE.start_ULTIMATE.startEXIT_9_Int| |hhv_ULTIMATE.start_ULTIMATE.startEXIT_10_Int| |hhv_ULTIMATE.start_ULTIMATE.startEXIT_11_Int| |hhv_ULTIMATE.start_ULTIMATE.startEXIT_12_Int| |hhv_ULTIMATE.start_ULTIMATE.startEXIT_13_Int| |hhv_ULTIMATE.start_ULTIMATE.startEXIT_14_Int| |hhv_ULTIMATE.start_ULTIMATE.startEXIT_15_Int| |hhv_ULTIMATE.start_ULTIMATE.startEXIT_16_Int| |hhv_ULTIMATE.start_ULTIMATE.startEXIT_17_Int| |hhv_ULTIMATE.start_ULTIMATE.startEXIT_18_Int| |hhv_ULTIMATE.start_ULTIMATE.startEXIT_19_Int| |hhv_ULTIMATE.start_ULTIMATE.startEXIT_20_Int| |hhv_ULTIMATE.start_ULTIMATE.startEXIT_21_Int| |hhv_ULTIMATE.start_ULTIMATE.startEXIT_22_Int| |hhv_ULTIMATE.start_ULTIMATE.startEXIT_23_Int| |hhv_ULTIMATE.start_ULTIMATE.startEXIT_24_Int| |hhv_ULTIMATE.start_ULTIMATE.startEXIT_25_Int| |hhv_ULTIMATE.start_ULTIMATE.startEXIT_26_Int| |hhv_ULTIMATE.start_ULTIMATE.startEXIT_27_Int| |hhv_ULTIMATE.start_ULTIMATE.startEXIT_28_Int| |hhv_ULTIMATE.start_ULTIMATE.startEXIT_29_Int| |hhv_ULTIMATE.start_ULTIMATE.startEXIT_30_Int| |hhv_ULTIMATE.start_ULTIMATE.startEXIT_31_Int| |hhv_ULTIMATE.start_ULTIMATE.startEXIT_32_Int| |hhv_ULTIMATE.start_ULTIMATE.startEXIT_33_Int| |hhv_ULTIMATE.start_ULTIMATE.startEXIT_34_Int| |hhv_ULTIMATE.start_ULTIMATE.startEXIT_35_Int| |hhv_ULTIMATE.start_ULTIMATE.startEXIT_36_Int| |hhv_ULTIMATE.start_ULTIMATE.startEXIT_37_Int| |hhv_ULTIMATE.start_ULTIMATE.startEXIT_38_Int| |hhv_ULTIMATE.start_ULTIMATE.startEXIT_39_Int| |hhv_ULTIMATE.start_ULTIMATE.startEXIT_40_Int| |hhv_ULTIMATE.start_ULTIMATE.startEXIT_41_Int| |hbv_ULTIMATE.start_L2-1_42_Bool| |.loc.6| |.loc.7| |.loc.8| |.loc.9| |.loc.10| |hbv_ULTIMATE.start_L-1_1_Array_Int_Int|) (not (and hbv_ULTIMATE.start_L2-1_42_Bool (and .loc.10 (and (not .loc.9) (and (not .loc.8) (and (not .loc.7) (not .loc.6))))))))))
(check-sat)
